(declare-sort sk 0)
(declare-datatype list ((nil) (cons (head sk) (tail list))))
(declare-datatype Nat ((Z) (S (proj1-S Nat))))
(define-fun-rec
  take
  ((x Nat) (y list)) list
  (match x
    ((Z nil)
     ((S z)
      (match y
        ((nil nil)
         ((cons x2 x3) (cons x2 (take z x3)))))))))
(define-fun-rec
  drop
  ((x Nat) (y list)) list
  (match x
    ((Z y)
     ((S z)
      (match y
        ((nil nil)
         ((cons x2 x3) (drop z x3))))))))
(define-fun-rec
  |-2|
  ((x Nat) (y Nat)) Nat
  (match x
    ((Z Z)
     ((S z)
      (match y
        ((Z (S z))
         ((S x2) (|-2| z x2))))))))
(assert
  (not
    (forall ((n Nat) (m Nat) (xs list))
      (= (drop n (take m xs)) (take (|-2| m n) (drop n xs))))))
(check-sat)
